NAME          ClpDefau
ROWS
 N  OBJROW
 L  R_76_0
 L  R_76_1
 L  R_76_2
 L  R_76_3
 L  R_76_4
 L  R_76_5
 L  R_76_6
 L  R_76_7
 L  R_76_8
 L  R_76_9
 L  R_76_10
 L  R_76_11
 L  R_76_12
 L  R_76_13
 L  R_76_14
 L  R_76_15
COLUMNS
    x_0       OBJROW     -8.           R_76_15   3.          
    x_1       OBJROW     -12.          R_76_1    6.          
    x_1       R_76_2    9.             R_76_6    8.          
    x_1       R_76_15   7.          
    x_2       OBJROW     -11.       
    x_3       OBJROW     -47.          R_76_2    10.         
    x_4       OBJROW     -22.          R_76_1    6.          
    x_4       R_76_4    2.             R_76_5    1.          
    x_4       R_76_9    9.             R_76_10   5.          
    x_5       OBJROW     -95.          R_76_0    6.          
    x_5       R_76_3    2.             R_76_5    1.          
    x_5       R_76_7    3.             R_76_10   10.         
    x_5       R_76_11   4.             R_76_12   1.          
    x_5       R_76_13   10.         
    x_6       OBJROW     -86.          R_76_5    5.          
    x_6       R_76_13   8.          
    x_7       OBJROW     -40.          R_76_13   3.          
    x_7       R_76_14   4.          
    x_8       OBJROW     -33.          R_76_13   1.          
    x_8       R_76_15   9.          
    x_9       OBJROW     -78.          R_76_2    3.          
    x_9       R_76_4    1.          
    x_10      OBJROW     -28.          R_76_0    7.          
    x_10      R_76_6    2.             R_76_11   7.          
    x_10      R_76_12   5.             R_76_13   1.          
    x_10      R_76_15   8.          
    x_11      OBJROW     -78.          R_76_3    1.          
    x_11      R_76_6    8.             R_76_7    10.         
    x_11      R_76_10   6.             R_76_12   2.          
    x_11      R_76_13   10.         
    x_12      OBJROW     -5.           R_76_2    8.          
    x_13      OBJROW     -75.          R_76_9    6.          
    x_13      R_76_10   9.             R_76_11   7.          
    x_14      OBJROW     -88.          R_76_1    5.          
    x_14      R_76_6    5.             R_76_7    9.          
    x_14      R_76_14   3.          
    x_15      OBJROW     -21.          R_76_5    8.          
    x_15      R_76_11   5.          
RHS
    RHS       R_76_0    19.            R_76_1    18.         
    RHS       R_76_2    20.            R_76_3    18.         
    RHS       R_76_4    21.            R_76_5    21.         
    RHS       R_76_6    21.            R_76_7    16.         
    RHS       R_76_8    21.            R_76_9    17.         
    RHS       R_76_10   20.            R_76_11   20.         
    RHS       R_76_12   17.            R_76_13   19.         
    RHS       R_76_14   21.            R_76_15   19.         
BOUNDS
 UI BOUND     x_0       100.        
 UI BOUND     x_1       100.        
 UI BOUND     x_2       100.        
 UI BOUND     x_3       100.        
 UI BOUND     x_4       100.        
 UI BOUND     x_5       100.        
 UI BOUND     x_6       100.        
 UI BOUND     x_7       100.        
 UI BOUND     x_8       100.        
 UI BOUND     x_9       100.        
 UI BOUND     x_10      100.        
 UI BOUND     x_11      100.        
 UI BOUND     x_12      100.        
 UI BOUND     x_13      100.        
 UI BOUND     x_14      100.        
 UI BOUND     x_15      100.        
ENDATA
